proyfinal/src/viki/013/andrea/andrea-localstore/experimentInOfficeAgust.take6/worker_11/9d9045c9-cf24-47bd-afb1-fa1b570d50b5.als.cnf.out
Reading from standard input... Use '--help' for help.
============================[ Problem Statistics ]=============================
|                                                                             |
|  Number of variables:         87638                                         |
|  Number of clauses:          161767                                         |
|  Parse time:                   0.04 s                                       |
|                                                                             |
============================[ Search Statistics ]==============================
| Conflicts |          ORIGINAL         |          LEARNT          | Progress |
|           |    Vars  Clauses Literals |    Limit  Clauses Lit/Cl |          |
===============================================================================
|       100 |   63884   110559   276302 |    40538      100     37 | 27.105 % |
|       250 |   63884   110559   276302 |    44592      250     44 | 27.105 % |
|       475 |   63884   110559   276302 |    49051      475     75 | 27.105 % |
|       812 |   63884   110559   276302 |    53956      812     73 | 27.105 % |
|      1318 |   63884   110559   276302 |    59352     1318     70 | 27.105 % |
|      2077 |   63845   110363   275854 |    65287     2066     80 | 27.149 % |
|      3216 |   63845   110363   275854 |    71816     3205     81 | 27.149 % |
|      4924 |   63827   110289   275683 |    78997     4912     82 | 27.170 % |
|      7486 |   63827   110289   275683 |    86897     7474     89 | 27.170 % |
|     11330 |   63785   110113   275279 |    95587    11315     89 | 27.218 % |
|     17096 |   63690   109870   274738 |   105145    16006     94 | 27.326 % |
===============================================================================
restarts              : 63
conflicts             : 18949          (5620 /sec)
decisions             : 67984          (0.00 % random) (20161 /sec)
propagations          : 30025510       (8904349 /sec)
conflict literals     : 1779931        (54.26 % deleted)
Memory used           : 38.42 MB
CPU time              : 3.37201 s

INDETERMINATE
